111 130 113 64 183 32 120 20 6 76 185 125 14 77 157 80 186 137 163 156 122 141 159 112 103 63 50 5 40 53 70 171 173 94 139 4 123 115 135 145 56 26 30 116 60 90 136 154 129 106 87 126 99 39 3 109 35 114 189 8 54 98 62 46 27 16 176 150 71 51 41 169 85 52 31 2 21 199 34 69 25 194 117 138 127 58 198 162 28 49 158 153 1 15 132 178 196 9 97 177 146 121 18 38 47 79 11 133 167 142 193 105 88 61 12 195 161 23 188 101 68 65 160 24 75 17 82 172 42 140 118 19 134 44 59 164 165 191 119 13 92 48 197 100 143 174 84 86 170 67 78 187 131 108 144 149 175 72 22 184 95 180 37 179 33 151 152 91 83 166 155 104 107 29 10 190 81 57 7 73 147 110 182 128 74 181 93 124 102 0 45 96 89 36 66 192 148 168 55 43 

